50	100	100	100
6	30	6
30	21	33
31	2	7
26	17	4
29	30	26
3	33	24
25	31	24
34	6	19
13	28	32
7	21	7
17	8	7
20	1	1
33	9	14
24	4	3
6	21	29
2	10	33
19	3	9
3	1	3
9	2	18
33	14	22
17	5	15
20	34	32
15	23	17
20	14	30
16	27	5
29	17	32
33	22	14
4	10	29
15	5	33
16	14	11
1	14	10
21	3	34
4	33	33
34	9	26
2	30	19
9	10	16
9	5	5
30	28	8
22	4	5
4	32	22
33	32	11
8	10	9
20	5	4
18	20	19
20	4	26
20	19	24
13	5	6
17	1	19
21	23	26
30	2	29
